\ENCODING=ISO-8859-1
\Problem name: IloCplex

Minimize
 obj1: 1430.38546744838 w_0_0 + 412.310562561766 w_0_1 + 903.548559846121 w_0_2
       + 800.999375780032 w_0_3 + 701.141925718324 w_0_4 + 900 w_0_5
       + 700 w_0_6 + 900.888450364417 w_0_7 + 701.141925718324 w_0_8
       + 905.538513813742 w_0_9 + 447.213595499958 w_0_10
       + 430.81318457076 w_0_11 + 331.058907144937 w_0_12
       + 316.227766016838 w_0_13 + 360.555127546399 w_0_14
       + 282.842712474619 w_0_15 + 256.124969497314 w_0_16
       + 244.131112314674 w_0_17 + 477.074417675063 w_0_18
       + 396.988664825584 w_0_19 + 1430.38546744838 w_1_0
       + 412.310562561766 w_1_1 + 903.548559846121 w_1_2
       + 800.999375780032 w_1_3 + 701.141925718324 w_1_4 + 900 w_1_5
       + 700 w_1_6 + 900.888450364417 w_1_7 + 701.141925718324 w_1_8
       + 905.538513813742 w_1_9 + 447.213595499958 w_1_10
       + 430.81318457076 w_1_11 + 331.058907144937 w_1_12
       + 316.227766016838 w_1_13 + 360.555127546399 w_1_14
       + 282.842712474619 w_1_15 + 256.124969497314 w_1_16
       + 244.131112314674 w_1_17 + 477.074417675063 w_1_18
       + 396.988664825584 w_1_19
Subject To
 packetCheck_1:       w_0_1 + w_1_1  = 1
 packetCheck_2:       w_0_2 + w_1_2  = 1
 packetCheck_3:       w_0_3 + w_1_3  = 1
 packetCheck_4:       w_0_4 + w_1_4  = 1
 packetCheck_5:       w_0_5 + w_1_5  = 1
 packetCheck_6:       w_0_6 + w_1_6  = 1
 packetCheck_7:       w_0_7 + w_1_7  = 1
 packetCheck_8:       w_0_8 + w_1_8  = 1
 packetCheck_9:       w_0_9 + w_1_9  = 1
 packetCheck_10:      w_0_10 + w_1_10  = 1
 packetCheck_11:      w_0_11 + w_1_11  = 1
 packetCheck_12:      w_0_12 + w_1_12  = 1
 packetCheck_13:      w_0_13 + w_1_13  = 1
 packetCheck_14:      w_0_14 + w_1_14  = 1
 packetCheck_15:      w_0_15 + w_1_15  = 1
 packetCheck_16:      w_0_16 + w_1_16  = 1
 packetCheck_17:      w_0_17 + w_1_17  = 1
 packetCheck_18:      w_0_18 + w_1_18  = 1
 packetCheck_19:      w_0_19 + w_1_19  = 1
 packets_ofVehicle_0: 10 w_0_1 + 20 w_0_2 + 40 w_0_3 + 10 w_0_4 + 30 w_0_5
                      + 40 w_0_6 + 30 w_0_7 + 10 w_0_8 + 20 w_0_9 + 10 w_0_10
                      + 10 w_0_11 + 10 w_0_12 + 10 w_0_13 + 20 w_0_14
                      + 50 w_0_15 + 10 w_0_16 + 10 w_0_17 + 10 w_0_18
                      + 50 w_0_19 <= 200
 packets_ofVehicle_1: 10 w_1_1 + 20 w_1_2 + 40 w_1_3 + 10 w_1_4 + 30 w_1_5
                      + 40 w_1_6 + 30 w_1_7 + 10 w_1_8 + 20 w_1_9 + 10 w_1_10
                      + 10 w_1_11 + 10 w_1_12 + 10 w_1_13 + 20 w_1_14
                      + 50 w_1_15 + 10 w_1_16 + 10 w_1_17 + 10 w_1_18
                      + 50 w_1_19 <= 200
Bounds
 0 <= w_0_0 <= 1
 0 <= w_0_1 <= 1
 0 <= w_0_2 <= 1
 0 <= w_0_3 <= 1
 0 <= w_0_4 <= 1
 0 <= w_0_5 <= 1
 0 <= w_0_6 <= 1
 0 <= w_0_7 <= 1
 0 <= w_0_8 <= 1
 0 <= w_0_9 <= 1
 0 <= w_0_10 <= 1
 0 <= w_0_11 <= 1
 0 <= w_0_12 <= 1
 0 <= w_0_13 <= 1
 0 <= w_0_14 <= 1
 0 <= w_0_15 <= 1
 0 <= w_0_16 <= 1
 0 <= w_0_17 <= 1
 0 <= w_0_18 <= 1
 0 <= w_0_19 <= 1
 0 <= w_1_0 <= 1
 0 <= w_1_1 <= 1
 0 <= w_1_2 <= 1
 0 <= w_1_3 <= 1
 0 <= w_1_4 <= 1
 0 <= w_1_5 <= 1
 0 <= w_1_6 <= 1
 0 <= w_1_7 <= 1
 0 <= w_1_8 <= 1
 0 <= w_1_9 <= 1
 0 <= w_1_10 <= 1
 0 <= w_1_11 <= 1
 0 <= w_1_12 <= 1
 0 <= w_1_13 <= 1
 0 <= w_1_14 <= 1
 0 <= w_1_15 <= 1
 0 <= w_1_16 <= 1
 0 <= w_1_17 <= 1
 0 <= w_1_18 <= 1
 0 <= w_1_19 <= 1
Binaries
 w_0_0  w_0_1  w_0_2  w_0_3  w_0_4  w_0_5  w_0_6  w_0_7  w_0_8  w_0_9  w_0_10 
 w_0_11  w_0_12  w_0_13  w_0_14  w_0_15  w_0_16  w_0_17  w_0_18  w_0_19  w_1_0 
 w_1_1  w_1_2  w_1_3  w_1_4  w_1_5  w_1_6  w_1_7  w_1_8  w_1_9  w_1_10  w_1_11 
 w_1_12  w_1_13  w_1_14  w_1_15  w_1_16  w_1_17  w_1_18  w_1_19 
End
